\ENCODING=ISO-8859-1
\Problem name: IloCplex

Minimize
 obj: id1 + id326
Subject To
 id115: id1 <= 40
 id117: id2 - id3 + 40 id22 >= 4
 id120: - id2 + id3 - 40 id22 >= -36
 id121: id2 - id4 + 40 id32 >= 4
 id124: - id2 + id4 - 40 id32 >= -36
 id125: id3 - id4 + 40 id33 >= 3
 id128: - id3 + id4 - 40 id33 >= -37
 id129: id2 - id5 + 40 id42 >= 4
 id132: - id2 + id5 - 40 id42 >= -36
 id133: id3 - id5 + 40 id43 >= 3
 id136: - id3 + id5 - 40 id43 >= -37
 id137: id4 - id5 + 40 id44 >= 3
 id140: - id4 + id5 - 40 id44 >= -37
 id141: id2 - id6 + 40 id52 >= 3
 id144: - id2 + id6 - 40 id52 >= -37
 id145: id3 - id6 + 40 id53 >= 4
 id148: - id3 + id6 - 40 id53 >= -36
 id149: id4 - id6 + 40 id54 >= 2
 id152: - id4 + id6 - 40 id54 >= -38
 id153: id5 - id6 + 40 id55 >= 2
 id156: - id5 + id6 - 40 id55 >= -38
 id157: id2 - id7 + 40 id62 >= 3
 id160: - id2 + id7 - 40 id62 >= -37
 id161: id3 - id7 + 40 id63 >= 4
 id164: - id3 + id7 - 40 id63 >= -36
 id165: id4 - id7 + 40 id64 >= 2
 id168: - id4 + id7 - 40 id64 >= -38
 id169: id5 - id7 + 40 id65 >= 2
 id172: - id5 + id7 - 40 id65 >= -38
 id173: id6 - id7 + 40 id66 >= 3
 id176: - id6 + id7 - 40 id66 >= -37
 id177: id2 - id8 + 40 id72 >= 3
 id180: - id2 + id8 - 40 id72 >= -37
 id181: id3 - id8 + 40 id73 >= 2
 id184: - id3 + id8 - 40 id73 >= -38
 id185: id4 - id8 + 40 id74 >= 4
 id188: - id4 + id8 - 40 id74 >= -36
 id189: id5 - id8 + 40 id75 >= 2
 id192: - id5 + id8 - 40 id75 >= -38
 id193: id6 - id8 + 40 id76 >= 1
 id196: - id6 + id8 - 40 id76 >= -39
 id197: id7 - id8 + 40 id77 >= 1
 id200: - id7 + id8 - 40 id77 >= -39
 id201: id2 - id9 + 40 id82 >= 3
 id204: - id2 + id9 - 40 id82 >= -37
 id205: id3 - id9 + 40 id83 >= 2
 id208: - id3 + id9 - 40 id83 >= -38
 id209: id4 - id9 + 40 id84 >= 4
 id212: - id4 + id9 - 40 id84 >= -36
 id213: id5 - id9 + 40 id85 >= 2
 id216: - id5 + id9 - 40 id85 >= -38
 id217: id6 - id9 + 40 id86 >= 1
 id220: - id6 + id9 - 40 id86 >= -39
 id221: id7 - id9 + 40 id87 >= 1
 id224: - id7 + id9 - 40 id87 >= -39
 id225: id8 - id9 + 40 id88 >= 3
 id228: - id8 + id9 - 40 id88 >= -37
 id229: id2 - id10 + 40 id92 >= 3
 id232: - id2 + id10 - 40 id92 >= -37
 id233: id3 - id10 + 40 id93 >= 2
 id236: - id3 + id10 - 40 id93 >= -38
 id237: id4 - id10 + 40 id94 >= 2
 id240: - id4 + id10 - 40 id94 >= -38
 id241: id5 - id10 + 40 id95 >= 4
 id244: - id5 + id10 - 40 id95 >= -36
 id245: id6 - id10 + 40 id96 >= 1
 id248: - id6 + id10 - 40 id96 >= -39
 id249: id7 - id10 + 40 id97 >= 1
 id252: - id7 + id10 - 40 id97 >= -39
 id253: id8 - id10 + 40 id98 >= 1
 id256: - id8 + id10 - 40 id98 >= -39
 id257: id9 - id10 + 40 id99 >= 1
 id260: - id9 + id10 - 40 id99 >= -39
 id261: id2 - id11 + 40 id102 >= 3
 id264: - id2 + id11 - 40 id102 >= -37
 id265: id3 - id11 + 40 id103 >= 2
 id268: - id3 + id11 - 40 id103 >= -38
 id269: id4 - id11 + 40 id104 >= 2
 id272: - id4 + id11 - 40 id104 >= -38
 id273: id5 - id11 + 40 id105 >= 4
 id276: - id5 + id11 - 40 id105 >= -36
 id277: id6 - id11 + 40 id106 >= 1
 id280: - id6 + id11 - 40 id106 >= -39
 id281: id7 - id11 + 40 id107 >= 1
 id284: - id7 + id11 - 40 id107 >= -39
 id285: id8 - id11 + 40 id108 >= 1
 id288: - id8 + id11 - 40 id108 >= -39
 id289: id9 - id11 + 40 id109 >= 1
 id292: - id9 + id11 - 40 id109 >= -39
 id293: id10 - id11 + 40 id110 >= 3
 id296: - id10 + id11 - 40 id110 >= -37
 id294: - id1 + id2 <= 0
 id297: id2 >= 0
 id299: - id1 + id3 <= 0
 id300: id3 >= 0
 id302: - id1 + id4 <= 0
 id303: id4 >= 0
 id305: - id1 + id5 <= 0
 id306: id5 >= 0
 id308: - id1 + id6 <= 0
 id309: id6 >= 0
 id311: - id1 + id7 <= 0
 id312: id7 >= 0
 id314: - id1 + id8 <= 0
 id315: id8 >= 0
 id317: - id1 + id9 <= 0
 id318: id9 >= 0
 id320: - id1 + id10 <= 0
 id321: id10 >= 0
 id323: - id1 + id11 <= 0
 id324: id11 >= 0
Bounds
      id1 >= 0
      id326 = 0
      id2 >= 0
      id3 >= 0
 0 <= id22 <= 1
      id4 >= 0
 0 <= id32 <= 1
 0 <= id33 <= 1
      id5 >= 0
 0 <= id42 <= 1
 0 <= id43 <= 1
 0 <= id44 <= 1
      id6 >= 0
 0 <= id52 <= 1
 0 <= id53 <= 1
 0 <= id54 <= 1
 0 <= id55 <= 1
      id7 >= 0
 0 <= id62 <= 1
 0 <= id63 <= 1
 0 <= id64 <= 1
 0 <= id65 <= 1
 0 <= id66 <= 1
      id8 >= 0
 0 <= id72 <= 1
 0 <= id73 <= 1
 0 <= id74 <= 1
 0 <= id75 <= 1
 0 <= id76 <= 1
 0 <= id77 <= 1
      id9 >= 0
 0 <= id82 <= 1
 0 <= id83 <= 1
 0 <= id84 <= 1
 0 <= id85 <= 1
 0 <= id86 <= 1
 0 <= id87 <= 1
 0 <= id88 <= 1
      id10 >= 0
 0 <= id92 <= 1
 0 <= id93 <= 1
 0 <= id94 <= 1
 0 <= id95 <= 1
 0 <= id96 <= 1
 0 <= id97 <= 1
 0 <= id98 <= 1
 0 <= id99 <= 1
      id11 >= 0
 0 <= id102 <= 1
 0 <= id103 <= 1
 0 <= id104 <= 1
 0 <= id105 <= 1
 0 <= id106 <= 1
 0 <= id107 <= 1
 0 <= id108 <= 1
 0 <= id109 <= 1
 0 <= id110 <= 1
Binaries
 id22  id32  id33  id42  id43  id44  id52  id53  id54  id55  id62  id63  id64 
 id65  id66  id72  id73  id74  id75  id76  id77  id82  id83  id84  id85  id86 
 id87  id88  id92  id93  id94  id95  id96  id97  id98  id99  id102  id103 
 id104  id105  id106  id107  id108  id109  id110 
Generals
 id1  id2  id3  id4  id5  id6  id7  id8  id9  id10  id11 
End
